8 10
60 15
10 11 3 2
15 6 2 4
1 7 3 3
7 3 1 1
4 13 2 1
14 15 1 1
18 7 3 1
14 14 3 3
16 0 2 1
12 13 1 5
18 4 2 1
13 13 1 1
9 12 3 4
13 1 3 3
10 15 2 1
13 7 2 5
20 6 3 2
0 1 2 4
18 12 3 3
17 14 2 2
1 11 3 2
2 14 1 1
17 1 1 5
17 15 3 3
5 3 3 3
18 10 3 2
20 16 1 1
0 10 1 3
15 7 2 4
16 6 2 2
11 9 3 2
4 6 2 1
8 10 1 4
10 9 2 1
1 14 1 1
0 19 3 1
19 4 2 5
12 12 1 2
0 11 2 1
0 0 3 3
15 9 1 3
16 1 2 1
18 16 3 4
8 5 1 4
2 10 3 2
6 6 3 4
7 6 2 3
1 0 1 1
4 8 3 3
15 7 2 5
1 17 2 1
5 17 2 5
20 0 1 1
0 4 2 1
17 18 3 1
7 8 1 5
10 7 2 3
9 10 3 5
10 13 1 3
7 0 1 4
